NAME 
ROWS
 N  OBJ
 L  R0      
 E  R1      
 E  R2      
 E  R3      
 E  R4      
 E  R5      
 E  R6      
 E  R7      
 E  R8      
 E  R9      
 E  R10     
 E  R11     
 E  R12     
 E  R13     
 E  R14     
 E  R15     
 E  R16     
 E  R17     
 E  R18     
 E  R19     
 E  R20     
 E  R21     
 E  R22     
 E  R23     
 E  R24     
 E  R25     
 E  R26     
 E  R27     
 E  R28     
 E  R29     
 E  R30     
 E  R31     
 E  R32     
 E  R33     
 E  R34     
 E  R35     
 E  R36     
 E  R37     
 E  R38     
 E  R39     
 E  R40     
COLUMNS
    MARKER    'MARKER'                 'INTORG'
    I0(3)     OBJ       -163
    I0(3)     R0        152
    I0(3)     R1        6
    I0(3)     R40       1
    I1(3)     OBJ       -94
    I1(3)     R0        -187
    I1(3)     R2        17
    I1(3)     R40       1
    I2(3)     OBJ       179
    I2(3)     R0        -87
    I2(3)     R3        17
    I2(3)     R40       1
    I3(3)     OBJ       -54
    I3(3)     R0        -144
    I3(3)     R4        4
    I3(3)     R40       1
    I4(3)     OBJ       -110
    I4(3)     R0        32
    I4(3)     R5        5
    I4(3)     R40       1
    I5(3)     OBJ       -192
    I5(3)     R0        196
    I5(3)     R6        11
    I5(3)     R40       1
    I6(3)     OBJ       109
    I6(3)     R0        96
    I6(3)     R7        7
    I6(3)     R40       1
    I7(3)     OBJ       89
    I7(3)     R0        -69
    I7(3)     R8        7
    I7(3)     R40       1
    I8(3)     OBJ       42
    I8(3)     R0        -53
    I8(3)     R9        10
    I8(3)     R40       1
    I9(3)     OBJ       -40
    I9(3)     R0        138
    I9(3)     R10       11
    I9(3)     R40       1
    I10(3)    OBJ       -32
    I10(3)    R0        -85
    I10(3)    R11       19
    I10(3)    R40       1
    I11(3)    OBJ       -46
    I11(3)    R0        39
    I11(3)    R12       14
    I11(3)    R40       1
    I12(3)    OBJ       -99
    I12(3)    R0        152
    I12(3)    R13       6
    I12(3)    R40       1
    I13(3)    OBJ       -171
    I13(3)    R0        -59
    I13(3)    R14       -1
    I13(3)    R40       1
    I14(3)    OBJ       -190
    I14(3)    R0        187
    I14(3)    R15       14
    I14(3)    R40       1
    I15(3)    OBJ       -89
    I15(3)    R0        49
    I15(3)    R16       15
    I15(3)    R40       1
    I16(3)    OBJ       -91
    I16(3)    R0        -181
    I16(3)    R17       5
    I16(3)    R40       1
    I17(3)    OBJ       -192
    I17(3)    R0        -186
    I17(3)    R18       19
    I17(3)    R40       1
    I18(3)    OBJ       -167
    I18(3)    R0        -31
    I18(3)    R19       8
    I18(3)    R40       1
    I19(3)    OBJ       190
    I19(3)    R0        -79
    I19(3)    R20       8
    I19(3)    R40       1
    I20(3)    OBJ       79
    I20(3)    R0        198
    I20(3)    R21       4
    I20(3)    R40       1
    I21(3)    OBJ       190
    I21(3)    R0        169
    I21(3)    R22       9
    I21(3)    R40       1
    I22(3)    OBJ       165
    I22(3)    R0        93
    I22(3)    R23       4
    I22(3)    R40       1
    I23(3)    OBJ       -32
    I23(3)    R0        164
    I23(3)    R24       3
    I23(3)    R40       1
    I24(3)    OBJ       122
    I24(3)    R0        196
    I24(3)    R25       10
    I24(3)    R40       1
    I25(3)    OBJ       78
    I25(3)    R0        160
    I25(3)    R26       14
    I25(3)    R40       1
    I26(3)    OBJ       -17
    I26(3)    R0        87
    I26(3)    R27       7
    I26(3)    R40       1
    I27(3)    OBJ       75
    I27(3)    R0        -186
    I27(3)    R28       18
    I27(3)    R40       1
    I28(3)    OBJ       158
    I28(3)    R0        40
    I28(3)    R29       2
    I28(3)    R40       1
    I29(3)    OBJ       19
    I29(3)    R0        145
    I29(3)    R30       9
    I29(3)    R40       1
    I30(3)    OBJ       187
    I30(3)    R0        128
    I30(3)    R31       18
    I30(3)    R40       1
    I31(3)    OBJ       93
    I31(3)    R0        130
    I31(3)    R32       15
    I31(3)    R40       1
    I32(3)    OBJ       -140
    I32(3)    R0        42
    I32(3)    R33       4
    I32(3)    R40       1
    I33(3)    OBJ       -151
    I33(3)    R0        -129
    I33(3)    R34       3
    I33(3)    R40       1
    I34(3)    OBJ       121
    I34(3)    R0        -90
    I34(3)    R35       9
    I34(3)    R40       1
    I35(3)    OBJ       108
    I35(3)    R0        159
    I35(3)    R36       13
    I35(3)    R40       1
    I36(3)    OBJ       129
    I36(3)    R0        115
    I36(3)    R37       5
    I36(3)    R40       1
    I37(3)    OBJ       -34
    I37(3)    R0        -158
    I37(3)    R38       9
    I37(3)    R40       1
    MARKER    'MARKER'                 'INTEND'
    C38(37)   OBJ       5
    C38(37)   R1        1
    C38(37)   R2        12
    C38(37)   R3        14
    C38(37)   R4        2
    C38(37)   R5        11
    C38(37)   R6        19
    C38(37)   R7        12
    C38(37)   R8        19
    C38(37)   R9        10
    C38(37)   R10       5
    C38(37)   R11       10
    C38(37)   R12       15
    C38(37)   R13       16
    C38(37)   R14       3
    C38(37)   R15       1
    C38(37)   R16       5
    C38(37)   R17       4
    C38(37)   R18       15
    C38(37)   R19       10
    C38(37)   R20       1
    C38(37)   R21       -1
    C38(37)   R22       2
    C38(37)   R23       12
    C38(37)   R24       5
    C38(37)   R25       17
    C38(37)   R26       11
    C38(37)   R27       7
    C38(37)   R28       9
    C38(37)   R29       10
    C38(37)   R30       2
    C38(37)   R31       17
    C38(37)   R32       7
    C38(37)   R33       17
    C38(37)   R34       7
    C38(37)   R36       17
    C38(37)   R37       7
    C38(37)   R39       11
    C39(39)   OBJ       6
    C39(39)   R0        4
    C39(39)   R1        10
    C39(39)   R2        8
    C39(39)   R3        3
    C39(39)   R4        11
    C39(39)   R5        -1
    C39(39)   R6        1
    C39(39)   R7        4
    C39(39)   R8        16
    C39(39)   R9        10
    C39(39)   R10       16
    C39(39)   R11       19
    C39(39)   R12       11
    C39(39)   R13       14
    C39(39)   R15       9
    C39(39)   R16       13
    C39(39)   R17       10
    C39(39)   R18       -1
    C39(39)   R19       3
    C39(39)   R20       15
    C39(39)   R21       12
    C39(39)   R22       7
    C39(39)   R23       11
    C39(39)   R24       7
    C39(39)   R25       11
    C39(39)   R26       16
    C39(39)   R27       16
    C39(39)   R28       8
    C39(39)   R29       18
    C39(39)   R30       12
    C39(39)   R31       13
    C39(39)   R32       10
    C39(39)   R33       5
    C39(39)   R34       4
    C39(39)   R35       9
    C39(39)   R36       7
    C39(39)   R37       5
    C39(39)   R38       1
    C39(39)   R39       12
    C40(1)    R1        1
    C41(1)    R2        1
    C42(1)    R3        1
    C43(1)    R4        1
    C44(1)    R5        1
    C45(1)    R6        1
    C46(1)    R7        1
    C47(1)    R8        1
    C48(1)    R9        1
    C49(1)    R10       1
    C50(1)    R11       1
    C51(1)    R12       1
    C52(1)    R13       1
    C53(1)    R14       1
    C54(1)    R15       1
    C55(1)    R16       1
    C56(1)    R17       1
    C57(1)    R18       1
    C58(1)    R19       1
    C59(1)    R20       1
    C60(1)    R21       1
    C61(1)    R22       1
    C62(1)    R23       1
    C63(1)    R24       1
    C64(1)    R25       1
    C65(1)    R26       1
    C66(1)    R27       1
    C67(1)    R28       1
    C68(1)    R29       1
    C69(1)    R30       1
    C70(1)    R31       1
    C71(1)    R32       1
    C72(1)    R33       1
    C73(1)    R34       1
    C74(1)    R35       1
    C75(1)    R36       1
    C76(1)    R37       1
    C77(1)    R38       1
    C78(1)    R39       1
    C79(1)    R40       1
RHS
    RHS1      R0        -12
    RHS1      R1        56
    RHS1      R2        75
    RHS1      R3        86
    RHS1      R4        70
    RHS1      R5        69
    RHS1      R6        82
    RHS1      R7        96
    RHS1      R8        75
    RHS1      R9        52
    RHS1      R10       56
    RHS1      R11       56
    RHS1      R12       86
    RHS1      R13       93
    RHS1      R14       97
    RHS1      R15       66
    RHS1      R16       86
    RHS1      R17       83
    RHS1      R18       77
    RHS1      R19       68
    RHS1      R20       56
    RHS1      R21       76
    RHS1      R22       59
    RHS1      R23       68
    RHS1      R24       71
    RHS1      R25       82
    RHS1      R26       79
    RHS1      R27       84
    RHS1      R28       62
    RHS1      R29       73
    RHS1      R30       80
    RHS1      R31       77
    RHS1      R32       75
    RHS1      R33       92
    RHS1      R34       50
    RHS1      R35       53
    RHS1      R36       82
    RHS1      R37       50
    RHS1      R38       93
    RHS1      R39       94
    RHS1      R40       12
BOUNDS
 UP BND1      I0(3)     1
 UP BND1      I1(3)     1
 UP BND1      I2(3)     1
 UP BND1      I3(3)     1
 UP BND1      I4(3)     1
 UP BND1      I5(3)     1
 UP BND1      I6(3)     1
 UP BND1      I7(3)     1
 UP BND1      I8(3)     1
 UP BND1      I9(3)     1
 UP BND1      I10(3)    1
 UP BND1      I11(3)    1
 UP BND1      I12(3)    1
 UP BND1      I13(3)    1
 UP BND1      I14(3)    1
 UP BND1      I15(3)    1
 UP BND1      I16(3)    1
 UP BND1      I17(3)    1
 UP BND1      I18(3)    1
 UP BND1      I19(3)    1
 UP BND1      I20(3)    1
 UP BND1      I21(3)    1
 UP BND1      I22(3)    1
 UP BND1      I23(3)    1
 UP BND1      I24(3)    1
 UP BND1      I25(3)    1
 UP BND1      I26(3)    1
 UP BND1      I27(3)    1
 UP BND1      I28(3)    1
 UP BND1      I29(3)    1
 UP BND1      I30(3)    1
 UP BND1      I31(3)    1
 UP BND1      I32(3)    1
 UP BND1      I33(3)    1
 UP BND1      I34(3)    1
 UP BND1      I35(3)    1
 UP BND1      I36(3)    1
 UP BND1      I37(3)    1
ENDATA
